(declare-const Bracket_1 Real)
(declare-const Bracket_2 Real)
(declare-const Bracket_3 Real)
(declare-const Bracket_4 Real)
(declare-const Bracket_5 Real)
(declare-const Bracket_6 Real)
(declare-const Bracket_7 Real)
(declare-const Bracket_8 Real)
(declare-const FinalTaxes Real)
(declare-const Income Real)

(assert (=> (<= Income 44192.0) (and (= Bracket_1 (* Income 0.087)) (= Bracket_2 0.0) (= Bracket_3 0.0) (= Bracket_4 0.0) (= Bracket_5 0.0) (= Bracket_6 0.0) (= Bracket_7 0.0) (= Bracket_8 0.0) (= FinalTaxes (+ Bracket_1 Bracket_2 Bracket_3 Bracket_4 Bracket_5 Bracket_6 Bracket_7 Bracket_8)))))
(assert (=> (and (> Income 44192.0) (<= Income 88382.0)) (and (= Bracket_1 (* 44192.0 0.087)) (= Bracket_2 (* (- Income 44192.0) 0.145)) (= Bracket_3 0.0) (= Bracket_4 0.0) (= Bracket_5 0.0) (= Bracket_6 0.0) (= Bracket_7 0.0) (= Bracket_8 0.0) (= FinalTaxes (+ Bracket_1 Bracket_2 Bracket_3 Bracket_4 Bracket_5 Bracket_6 Bracket_7 Bracket_8)))))
(assert (=> (and (> Income 88382.0) (<= Income 157792.0)) (and (= Bracket_1 (* 44192.0 0.087)) (= Bracket_2 (* (- 88382.0 44192.0) 0.145)) (= Bracket_3 (* (- Income 88382.0) 0.158)) (= Bracket_4 0.0) (= Bracket_5 0.0) (= Bracket_6 0.0) (= Bracket_7 0.0) (= Bracket_8 0.0) (= FinalTaxes (+ Bracket_1 Bracket_2 Bracket_3 Bracket_4 Bracket_5 Bracket_6 Bracket_7 Bracket_8)))))
(assert (=> (and (> Income 157792.0) (<= Income 220910.0)) (and (= Bracket_1 (* 44192.0 0.087)) (= Bracket_2 (* (- 88382.0 44192.0) 0.145)) (= Bracket_3 (* (- 157792.0 88382.0) 0.158)) (= Bracket_4 (* (- Income 157792.0) 0.178)) (= Bracket_5 0.0) (= Bracket_6 0.0) (= Bracket_7 0.0) (= Bracket_8 0.0) (= FinalTaxes (+ Bracket_1 Bracket_2 Bracket_3 Bracket_4 Bracket_5 Bracket_6 Bracket_7 Bracket_8)))))
(assert (=> (and (> Income 220910.0) (<= Income 282214.0)) (and (= Bracket_1 (* 44192.0 0.087)) (= Bracket_2 (* (- 88382.0 44192.0) 0.145)) (= Bracket_3 (* (- 157792.0 88382.0) 0.158)) (= Bracket_4 (* (- 220910.0 157792.0) 0.178)) (= Bracket_5 (* (- Income 220910.0) 0.198)) (= Bracket_6 0.0) (= Bracket_7 0.0) (= Bracket_8 0.0) (= FinalTaxes (+ Bracket_1 Bracket_2 Bracket_3 Bracket_4 Bracket_5 Bracket_6 Bracket_7 Bracket_8)))))
(assert (=> (and (> Income 282214.0) (<= Income 564429.0)) (and (= Bracket_1 (* 44192.0 0.087)) (= Bracket_2 (* (- 88382.0 44192.0) 0.145)) (= Bracket_3 (* (- 157792.0 88382.0) 0.158)) (= Bracket_4 (* (- 220910.0 157792.0) 0.178)) (= Bracket_5 (* (- 282214.0 220910.0) 0.198)) (= Bracket_6 (* (- Income 282214.0) 0.208)) (= Bracket_7 0.0) (= Bracket_8 0.0) (= FinalTaxes (+ Bracket_1 Bracket_2 Bracket_3 Bracket_4 Bracket_5 Bracket_6 Bracket_7 Bracket_8)))))
(assert (=> (and (> Income 564429.0) (<= Income 1128858.0)) (and (= Bracket_1 (* 44192.0 0.087)) (= Bracket_2 (* (- 88382.0 44192.0) 0.145)) (= Bracket_3 (* (- 157792.0 88382.0) 0.158)) (= Bracket_4 (* (- 220910.0 157792.0) 0.178)) (= Bracket_5 (* (- 282214.0 220910.0) 0.198)) (= Bracket_6 (* (- 564429.0 282214.0) 0.208)) (= Bracket_7 (* (- Income 564429.0) 0.213)) (= Bracket_8 0.0) (= FinalTaxes (+ Bracket_1 Bracket_2 Bracket_3 Bracket_4 Bracket_5 Bracket_6 Bracket_7 Bracket_8)))))
(assert (=> (> Income 1128858.0) (and (= Bracket_1 (* 44192.0 0.087)) (= Bracket_2 (* (- 88382.0 44192.0) 0.145)) (= Bracket_3 (* (- 157792.0 88382.0) 0.158)) (= Bracket_4 (* (- 220910.0 157792.0) 0.178)) (= Bracket_5 (* (- 282214.0 220910.0) 0.198)) (= Bracket_6 (* (- 564429.0 282214.0) 0.208)) (= Bracket_7 (* (- 1128858.0 564429.0) 0.213)) (= Bracket_8 (* (- Income 1128858.0) 0.218)) (= FinalTaxes (+ Bracket_1 Bracket_2 Bracket_3 Bracket_4 Bracket_5 Bracket_6 Bracket_7 Bracket_8)))))
